Minimize
	value: tt

Subject to
tt + 1000 s_1_1 > 0.0
tt - t_1_1 - 1003.843766 s_1_1  + 3.843766 s_1_7  > -972.154522
tt + 1000 s_2_1 > 0.0
tt - t_2_1 - 1003.622795 s_2_1  + 3.622795 s_2_7  > -957.249767
tt + 1000 s_1_2 > 0.0
tt - t_1_2 - 1003.843766 s_1_2  + 3.843766 s_1_8  > -970.646989
tt + 1000 s_2_2 > 0.0
tt - t_2_2 - 1003.622795 s_2_2  + 3.622795 s_2_8  > -955.284400
tt + 1000 s_1_3 > 0.0
tt - t_1_3 - 1003.843766 s_1_3  + 3.843766 s_1_8  > -950.767900
tt + 1000 s_2_3 > 0.0
tt - t_2_3 - 1003.622795 s_2_3  + 3.622795 s_2_8  > -927.647944
tt + 1000 s_1_4 > 0.0
tt - t_1_4 - 1006.498194 s_1_4  + 2.654428 s_1_3  + 3.843766 s_1_8  > -974.345489
tt + 1000 s_2_4 > 0.0
tt - t_2_4 - 1006.000108 s_2_4  + 2.377314 s_2_3  + 3.622795 s_2_8  > -960.804575
tt + 1000 s_1_5 > 0.0
tt - t_1_5 - 1007.687532 s_1_5  + 3.843766 s_1_7  + 3.843766 s_1_8  > -962.961078
tt + 1000 s_2_5 > 0.0
tt - t_2_5 - 1007.245589 s_2_5  + 3.622795 s_2_7  + 3.622795 s_2_8  > -946.942231
tt + 1000 s_1_6 > 0.0
tt - t_1_6 - 1013.272139 s_1_6  + 2.654428 s_1_2  + 2.654428 s_1_3  + 2.654428 s_1_5  + 2.654428 s_1_1  + 2.654428 s_1_4  > -998.873300
tt + 1000 s_2_6 > 0.0
tt - t_2_6 - 1011.886570 s_2_6  + 2.377314 s_2_2  + 2.377314 s_2_3  + 2.377314 s_2_5  + 2.377314 s_2_1  + 2.377314 s_2_4  > -987.859400
tt + 1000 s_1_7 > 0.0
tt - t_1_7 - 1000.000000 s_1_7  > -887.987500
tt + 1000 s_2_7 > 0.0
tt - t_2_7 - 1000.000000 s_2_7  > -880.002600
tt + 1000 s_1_8 > 0.0
tt - t_1_8 - 1000.000000 s_1_8  > -887.905900
tt + 1000 s_2_8 > 0.0
tt - t_2_8 - 1000.000000 s_2_8  > -879.900500
s_1_1 + s_2_1 = 1
s_1_2 + s_2_2 = 1
s_1_3 + s_2_3 = 1
s_1_4 + s_2_4 = 1
s_1_5 + s_2_5 = 1
s_1_6 + s_2_6 = 1
s_1_7 + s_2_7 = 1
s_1_8 + s_2_8 = 1
s_1_1 + s_1_2 + 1000 r_1_1_2 >= 2
- s_1_1 - s_1_2 - 1000 r_1_1_2 >= -1001
t_1_1 - t_1_2 - 1000.000000 u_1_1_2 - 3.843766 s_1_2  + 3.843766 s_1_8  + 2000.000000 r_1_1_2 > -970.646989
s_2_1 + s_2_2 + 1000 r_2_1_2 >= 2
- s_2_1 - s_2_2 - 1000 r_2_1_2 >= -1001
t_2_1 - t_2_2 - 1000.000000 u_2_1_2 - 3.622795 s_2_2  + 3.622795 s_2_8  + 2000.000000 r_2_1_2 > -955.284400
s_1_1 + s_1_3 + 1000 r_1_1_3 >= 2
- s_1_1 - s_1_3 - 1000 r_1_1_3 >= -1001
t_1_1 - t_1_3 - 1000.000000 u_1_1_3 - 3.843766 s_1_3  + 3.843766 s_1_8  + 2000.000000 r_1_1_3 > -950.767900
s_2_1 + s_2_3 + 1000 r_2_1_3 >= 2
- s_2_1 - s_2_3 - 1000 r_2_1_3 >= -1001
t_2_1 - t_2_3 - 1000.000000 u_2_1_3 - 3.622795 s_2_3  + 3.622795 s_2_8  + 2000.000000 r_2_1_3 > -927.647944
s_1_1 + s_1_4 + 1000 r_1_1_4 >= 2
- s_1_1 - s_1_4 - 1000 r_1_1_4 >= -1001
t_1_1 - t_1_4 - 1000.000000 u_1_1_4 - 6.498194 s_1_4  + 2.654428 s_1_3  + 3.843766 s_1_8  + 2000.000000 r_1_1_4 > -974.345489
s_2_1 + s_2_4 + 1000 r_2_1_4 >= 2
- s_2_1 - s_2_4 - 1000 r_2_1_4 >= -1001
t_2_1 - t_2_4 - 1000.000000 u_2_1_4 - 6.000108 s_2_4  + 2.377314 s_2_3  + 3.622795 s_2_8  + 2000.000000 r_2_1_4 > -960.804575
s_1_1 + s_1_5 + 1000 r_1_1_5 >= 2
- s_1_1 - s_1_5 - 1000 r_1_1_5 >= -1001
t_1_1 - t_1_5 - 1000.000000 u_1_1_5 - 7.687532 s_1_5  + 3.843766 s_1_7  + 3.843766 s_1_8  + 2000.000000 r_1_1_5 > -962.961078
s_2_1 + s_2_5 + 1000 r_2_1_5 >= 2
- s_2_1 - s_2_5 - 1000 r_2_1_5 >= -1001
t_2_1 - t_2_5 - 1000.000000 u_2_1_5 - 7.245589 s_2_5  + 3.622795 s_2_7  + 3.622795 s_2_8  + 2000.000000 r_2_1_5 > -946.942231
t_1_6 - t_1_1 - 1003.843766 s_1_1  + 3.843766 s_1_7  > -972.154522
t_1_6 - t_2_1 - 1003.622795 s_2_1  + 3.622795 s_2_7  > -957.249767
t_2_6 - t_1_1 - 1003.843766 s_1_1  + 3.843766 s_1_7  > -972.154522
t_2_6 - t_2_1 - 1003.622795 s_2_1  + 3.622795 s_2_7  > -957.249767
t_1_1 - t_1_7 - 1000.000000 s_1_7  > -887.987500
t_1_1 - t_2_7 - 1000.000000 s_2_7  > -880.002600
t_2_1 - t_1_7 - 1000.000000 s_1_7  > -887.987500
t_2_1 - t_2_7 - 1000.000000 s_2_7  > -880.002600
s_1_1 + s_1_8 + 1000 r_1_1_8 >= 2
- s_1_1 - s_1_8 - 1000 r_1_1_8 >= -1001
t_1_1 - t_1_8 - 1000.000000 u_1_1_8 - 0.000000 s_1_8  + 2000.000000 r_1_1_8 > -887.905900
s_2_1 + s_2_8 + 1000 r_2_1_8 >= 2
- s_2_1 - s_2_8 - 1000 r_2_1_8 >= -1001
t_2_1 - t_2_8 - 1000.000000 u_2_1_8 - 0.000000 s_2_8  + 2000.000000 r_2_1_8 > -879.900500
s_1_2 + s_1_1 + 1000 r_1_1_2 >= 2
- s_1_2 - s_1_1 - 1000 r_1_1_2 >= -1001
t_1_2 - t_1_1 + 1000.000000 u_1_1_2 - 3.843766 s_1_1  + 3.843766 s_1_7  + 2000.000000 r_1_1_2 > 27.845478
s_2_2 + s_2_1 + 1000 r_2_1_2 >= 2
- s_2_2 - s_2_1 - 1000 r_2_1_2 >= -1001
t_2_2 - t_2_1 + 1000.000000 u_2_1_2 - 3.622795 s_2_1  + 3.622795 s_2_7  + 2000.000000 r_2_1_2 > 42.750233
s_1_2 + s_1_3 + 1000 r_1_2_3 >= 2
- s_1_2 - s_1_3 - 1000 r_1_2_3 >= -1001
t_1_2 - t_1_3 - 1000.000000 u_1_2_3 - 3.843766 s_1_3  + 3.843766 s_1_8  + 2000.000000 r_1_2_3 > -950.767900
s_2_2 + s_2_3 + 1000 r_2_2_3 >= 2
- s_2_2 - s_2_3 - 1000 r_2_2_3 >= -1001
t_2_2 - t_2_3 - 1000.000000 u_2_2_3 - 3.622795 s_2_3  + 3.622795 s_2_8  + 2000.000000 r_2_2_3 > -927.647944
s_1_2 + s_1_4 + 1000 r_1_2_4 >= 2
- s_1_2 - s_1_4 - 1000 r_1_2_4 >= -1001
t_1_2 - t_1_4 - 1000.000000 u_1_2_4 - 6.498194 s_1_4  + 2.654428 s_1_3  + 3.843766 s_1_8  + 2000.000000 r_1_2_4 > -974.345489
s_2_2 + s_2_4 + 1000 r_2_2_4 >= 2
- s_2_2 - s_2_4 - 1000 r_2_2_4 >= -1001
t_2_2 - t_2_4 - 1000.000000 u_2_2_4 - 6.000108 s_2_4  + 2.377314 s_2_3  + 3.622795 s_2_8  + 2000.000000 r_2_2_4 > -960.804575
s_1_2 + s_1_5 + 1000 r_1_2_5 >= 2
- s_1_2 - s_1_5 - 1000 r_1_2_5 >= -1001
t_1_2 - t_1_5 - 1000.000000 u_1_2_5 - 7.687532 s_1_5  + 3.843766 s_1_7  + 3.843766 s_1_8  + 2000.000000 r_1_2_5 > -962.961078
s_2_2 + s_2_5 + 1000 r_2_2_5 >= 2
- s_2_2 - s_2_5 - 1000 r_2_2_5 >= -1001
t_2_2 - t_2_5 - 1000.000000 u_2_2_5 - 7.245589 s_2_5  + 3.622795 s_2_7  + 3.622795 s_2_8  + 2000.000000 r_2_2_5 > -946.942231
t_1_6 - t_1_2 - 1003.843766 s_1_2  + 3.843766 s_1_8  > -970.646989
t_1_6 - t_2_2 - 1003.622795 s_2_2  + 3.622795 s_2_8  > -955.284400
t_2_6 - t_1_2 - 1003.843766 s_1_2  + 3.843766 s_1_8  > -970.646989
t_2_6 - t_2_2 - 1003.622795 s_2_2  + 3.622795 s_2_8  > -955.284400
s_1_2 + s_1_7 + 1000 r_1_2_7 >= 2
- s_1_2 - s_1_7 - 1000 r_1_2_7 >= -1001
t_1_2 - t_1_7 - 1000.000000 u_1_2_7 - 0.000000 s_1_7  + 2000.000000 r_1_2_7 > -887.987500
s_2_2 + s_2_7 + 1000 r_2_2_7 >= 2
- s_2_2 - s_2_7 - 1000 r_2_2_7 >= -1001
t_2_2 - t_2_7 - 1000.000000 u_2_2_7 - 0.000000 s_2_7  + 2000.000000 r_2_2_7 > -880.002600
t_1_2 - t_1_8 - 1000.000000 s_1_8  > -887.905900
t_1_2 - t_2_8 - 1000.000000 s_2_8  > -879.900500
t_2_2 - t_1_8 - 1000.000000 s_1_8  > -887.905900
t_2_2 - t_2_8 - 1000.000000 s_2_8  > -879.900500
s_1_3 + s_1_1 + 1000 r_1_1_3 >= 2
- s_1_3 - s_1_1 - 1000 r_1_1_3 >= -1001
t_1_3 - t_1_1 + 1000.000000 u_1_1_3 - 3.843766 s_1_1  + 3.843766 s_1_7  + 2000.000000 r_1_1_3 > 27.845478
s_2_3 + s_2_1 + 1000 r_2_1_3 >= 2
- s_2_3 - s_2_1 - 1000 r_2_1_3 >= -1001
t_2_3 - t_2_1 + 1000.000000 u_2_1_3 - 3.622795 s_2_1  + 3.622795 s_2_7  + 2000.000000 r_2_1_3 > 42.750233
s_1_3 + s_1_2 + 1000 r_1_2_3 >= 2
- s_1_3 - s_1_2 - 1000 r_1_2_3 >= -1001
t_1_3 - t_1_2 + 1000.000000 u_1_2_3 - 3.843766 s_1_2  + 3.843766 s_1_8  + 2000.000000 r_1_2_3 > 29.353011
s_2_3 + s_2_2 + 1000 r_2_2_3 >= 2
- s_2_3 - s_2_2 - 1000 r_2_2_3 >= -1001
t_2_3 - t_2_2 + 1000.000000 u_2_2_3 - 3.622795 s_2_2  + 3.622795 s_2_8  + 2000.000000 r_2_2_3 > 44.715600
t_1_4 - t_1_3 - 1003.843766 s_1_3  + 3.843766 s_1_8  > -950.767900
t_1_4 - t_2_3 - 1003.622795 s_2_3  + 3.622795 s_2_8  > -927.647944
t_2_4 - t_1_3 - 1003.843766 s_1_3  + 3.843766 s_1_8  > -950.767900
t_2_4 - t_2_3 - 1003.622795 s_2_3  + 3.622795 s_2_8  > -927.647944
s_1_3 + s_1_5 + 1000 r_1_3_5 >= 2
- s_1_3 - s_1_5 - 1000 r_1_3_5 >= -1001
t_1_3 - t_1_5 - 1000.000000 u_1_3_5 - 7.687532 s_1_5  + 3.843766 s_1_7  + 3.843766 s_1_8  + 2000.000000 r_1_3_5 > -962.961078
s_2_3 + s_2_5 + 1000 r_2_3_5 >= 2
- s_2_3 - s_2_5 - 1000 r_2_3_5 >= -1001
t_2_3 - t_2_5 - 1000.000000 u_2_3_5 - 7.245589 s_2_5  + 3.622795 s_2_7  + 3.622795 s_2_8  + 2000.000000 r_2_3_5 > -946.942231
t_1_6 - t_1_3 - 1003.843766 s_1_3  + 3.843766 s_1_8  > -950.767900
t_1_6 - t_2_3 - 1003.622795 s_2_3  + 3.622795 s_2_8  > -927.647944
t_2_6 - t_1_3 - 1003.843766 s_1_3  + 3.843766 s_1_8  > -950.767900
t_2_6 - t_2_3 - 1003.622795 s_2_3  + 3.622795 s_2_8  > -927.647944
s_1_3 + s_1_7 + 1000 r_1_3_7 >= 2
- s_1_3 - s_1_7 - 1000 r_1_3_7 >= -1001
t_1_3 - t_1_7 - 1000.000000 u_1_3_7 - 0.000000 s_1_7  + 2000.000000 r_1_3_7 > -887.987500
s_2_3 + s_2_7 + 1000 r_2_3_7 >= 2
- s_2_3 - s_2_7 - 1000 r_2_3_7 >= -1001
t_2_3 - t_2_7 - 1000.000000 u_2_3_7 - 0.000000 s_2_7  + 2000.000000 r_2_3_7 > -880.002600
t_1_3 - t_1_8 - 1000.000000 s_1_8  > -887.905900
t_1_3 - t_2_8 - 1000.000000 s_2_8  > -879.900500
t_2_3 - t_1_8 - 1000.000000 s_1_8  > -887.905900
t_2_3 - t_2_8 - 1000.000000 s_2_8  > -879.900500
s_1_4 + s_1_1 + 1000 r_1_1_4 >= 2
- s_1_4 - s_1_1 - 1000 r_1_1_4 >= -1001
t_1_4 - t_1_1 + 1000.000000 u_1_1_4 - 3.843766 s_1_1  + 3.843766 s_1_7  + 2000.000000 r_1_1_4 > 27.845478
s_2_4 + s_2_1 + 1000 r_2_1_4 >= 2
- s_2_4 - s_2_1 - 1000 r_2_1_4 >= -1001
t_2_4 - t_2_1 + 1000.000000 u_2_1_4 - 3.622795 s_2_1  + 3.622795 s_2_7  + 2000.000000 r_2_1_4 > 42.750233
s_1_4 + s_1_2 + 1000 r_1_2_4 >= 2
- s_1_4 - s_1_2 - 1000 r_1_2_4 >= -1001
t_1_4 - t_1_2 + 1000.000000 u_1_2_4 - 3.843766 s_1_2  + 3.843766 s_1_8  + 2000.000000 r_1_2_4 > 29.353011
s_2_4 + s_2_2 + 1000 r_2_2_4 >= 2
- s_2_4 - s_2_2 - 1000 r_2_2_4 >= -1001
t_2_4 - t_2_2 + 1000.000000 u_2_2_4 - 3.622795 s_2_2  + 3.622795 s_2_8  + 2000.000000 r_2_2_4 > 44.715600
s_1_4 + s_1_5 + 1000 r_1_4_5 >= 2
- s_1_4 - s_1_5 - 1000 r_1_4_5 >= -1001
t_1_4 - t_1_5 - 1000.000000 u_1_4_5 - 7.687532 s_1_5  + 3.843766 s_1_7  + 3.843766 s_1_8  + 2000.000000 r_1_4_5 > -962.961078
s_2_4 + s_2_5 + 1000 r_2_4_5 >= 2
- s_2_4 - s_2_5 - 1000 r_2_4_5 >= -1001
t_2_4 - t_2_5 - 1000.000000 u_2_4_5 - 7.245589 s_2_5  + 3.622795 s_2_7  + 3.622795 s_2_8  + 2000.000000 r_2_4_5 > -946.942231
t_1_6 - t_1_4 - 1006.498194 s_1_4  + 2.654428 s_1_3  + 3.843766 s_1_8  > -974.345489
t_1_6 - t_2_4 - 1006.000108 s_2_4  + 2.377314 s_2_3  + 3.622795 s_2_8  > -960.804575
t_2_6 - t_1_4 - 1006.498194 s_1_4  + 2.654428 s_1_3  + 3.843766 s_1_8  > -974.345489
t_2_6 - t_2_4 - 1006.000108 s_2_4  + 2.377314 s_2_3  + 3.622795 s_2_8  > -960.804575
s_1_4 + s_1_7 + 1000 r_1_4_7 >= 2
- s_1_4 - s_1_7 - 1000 r_1_4_7 >= -1001
t_1_4 - t_1_7 - 1000.000000 u_1_4_7 - 0.000000 s_1_7  + 2000.000000 r_1_4_7 > -887.987500
s_2_4 + s_2_7 + 1000 r_2_4_7 >= 2
- s_2_4 - s_2_7 - 1000 r_2_4_7 >= -1001
t_2_4 - t_2_7 - 1000.000000 u_2_4_7 - 0.000000 s_2_7  + 2000.000000 r_2_4_7 > -880.002600
t_1_4 - t_1_8 - 1000.000000 s_1_8  > -887.905900
t_1_4 - t_2_8 - 1000.000000 s_2_8  > -879.900500
t_2_4 - t_1_8 - 1000.000000 s_1_8  > -887.905900
t_2_4 - t_2_8 - 1000.000000 s_2_8  > -879.900500
s_1_5 + s_1_1 + 1000 r_1_1_5 >= 2
- s_1_5 - s_1_1 - 1000 r_1_1_5 >= -1001
t_1_5 - t_1_1 + 1000.000000 u_1_1_5 - 3.843766 s_1_1  + 3.843766 s_1_7  + 2000.000000 r_1_1_5 > 27.845478
s_2_5 + s_2_1 + 1000 r_2_1_5 >= 2
- s_2_5 - s_2_1 - 1000 r_2_1_5 >= -1001
t_2_5 - t_2_1 + 1000.000000 u_2_1_5 - 3.622795 s_2_1  + 3.622795 s_2_7  + 2000.000000 r_2_1_5 > 42.750233
s_1_5 + s_1_2 + 1000 r_1_2_5 >= 2
- s_1_5 - s_1_2 - 1000 r_1_2_5 >= -1001
t_1_5 - t_1_2 + 1000.000000 u_1_2_5 - 3.843766 s_1_2  + 3.843766 s_1_8  + 2000.000000 r_1_2_5 > 29.353011
s_2_5 + s_2_2 + 1000 r_2_2_5 >= 2
- s_2_5 - s_2_2 - 1000 r_2_2_5 >= -1001
t_2_5 - t_2_2 + 1000.000000 u_2_2_5 - 3.622795 s_2_2  + 3.622795 s_2_8  + 2000.000000 r_2_2_5 > 44.715600
s_1_5 + s_1_3 + 1000 r_1_3_5 >= 2
- s_1_5 - s_1_3 - 1000 r_1_3_5 >= -1001
t_1_5 - t_1_3 + 1000.000000 u_1_3_5 - 3.843766 s_1_3  + 3.843766 s_1_8  + 2000.000000 r_1_3_5 > 49.232100
s_2_5 + s_2_3 + 1000 r_2_3_5 >= 2
- s_2_5 - s_2_3 - 1000 r_2_3_5 >= -1001
t_2_5 - t_2_3 + 1000.000000 u_2_3_5 - 3.622795 s_2_3  + 3.622795 s_2_8  + 2000.000000 r_2_3_5 > 72.352056
s_1_5 + s_1_4 + 1000 r_1_4_5 >= 2
- s_1_5 - s_1_4 - 1000 r_1_4_5 >= -1001
t_1_5 - t_1_4 + 1000.000000 u_1_4_5 - 6.498194 s_1_4  + 2.654428 s_1_3  + 3.843766 s_1_8  + 2000.000000 r_1_4_5 > 25.654511
s_2_5 + s_2_4 + 1000 r_2_4_5 >= 2
- s_2_5 - s_2_4 - 1000 r_2_4_5 >= -1001
t_2_5 - t_2_4 + 1000.000000 u_2_4_5 - 6.000108 s_2_4  + 2.377314 s_2_3  + 3.622795 s_2_8  + 2000.000000 r_2_4_5 > 39.195425
t_1_6 - t_1_5 - 1007.687532 s_1_5  + 3.843766 s_1_7  + 3.843766 s_1_8  > -962.961078
t_1_6 - t_2_5 - 1007.245589 s_2_5  + 3.622795 s_2_7  + 3.622795 s_2_8  > -946.942231
t_2_6 - t_1_5 - 1007.687532 s_1_5  + 3.843766 s_1_7  + 3.843766 s_1_8  > -962.961078
t_2_6 - t_2_5 - 1007.245589 s_2_5  + 3.622795 s_2_7  + 3.622795 s_2_8  > -946.942231
t_1_5 - t_1_7 - 1000.000000 s_1_7  > -887.987500
t_1_5 - t_2_7 - 1000.000000 s_2_7  > -880.002600
t_2_5 - t_1_7 - 1000.000000 s_1_7  > -887.987500
t_2_5 - t_2_7 - 1000.000000 s_2_7  > -880.002600
t_1_5 - t_1_8 - 1000.000000 s_1_8  > -887.905900
t_1_5 - t_2_8 - 1000.000000 s_2_8  > -879.900500
t_2_5 - t_1_8 - 1000.000000 s_1_8  > -887.905900
t_2_5 - t_2_8 - 1000.000000 s_2_8  > -879.900500
s_1_7 + s_1_2 + 1000 r_1_2_7 >= 2
- s_1_7 - s_1_2 - 1000 r_1_2_7 >= -1001
t_1_7 - t_1_2 + 1000.000000 u_1_2_7 - 3.843766 s_1_2  + 3.843766 s_1_8  + 2000.000000 r_1_2_7 > 29.353011
s_2_7 + s_2_2 + 1000 r_2_2_7 >= 2
- s_2_7 - s_2_2 - 1000 r_2_2_7 >= -1001
t_2_7 - t_2_2 + 1000.000000 u_2_2_7 - 3.622795 s_2_2  + 3.622795 s_2_8  + 2000.000000 r_2_2_7 > 44.715600
s_1_7 + s_1_3 + 1000 r_1_3_7 >= 2
- s_1_7 - s_1_3 - 1000 r_1_3_7 >= -1001
t_1_7 - t_1_3 + 1000.000000 u_1_3_7 - 3.843766 s_1_3  + 3.843766 s_1_8  + 2000.000000 r_1_3_7 > 49.232100
s_2_7 + s_2_3 + 1000 r_2_3_7 >= 2
- s_2_7 - s_2_3 - 1000 r_2_3_7 >= -1001
t_2_7 - t_2_3 + 1000.000000 u_2_3_7 - 3.622795 s_2_3  + 3.622795 s_2_8  + 2000.000000 r_2_3_7 > 72.352056
s_1_7 + s_1_4 + 1000 r_1_4_7 >= 2
- s_1_7 - s_1_4 - 1000 r_1_4_7 >= -1001
t_1_7 - t_1_4 + 1000.000000 u_1_4_7 - 6.498194 s_1_4  + 2.654428 s_1_3  + 3.843766 s_1_8  + 2000.000000 r_1_4_7 > 25.654511
s_2_7 + s_2_4 + 1000 r_2_4_7 >= 2
- s_2_7 - s_2_4 - 1000 r_2_4_7 >= -1001
t_2_7 - t_2_4 + 1000.000000 u_2_4_7 - 6.000108 s_2_4  + 2.377314 s_2_3  + 3.622795 s_2_8  + 2000.000000 r_2_4_7 > 39.195425
s_1_7 + s_1_8 + 1000 r_1_7_8 >= 2
- s_1_7 - s_1_8 - 1000 r_1_7_8 >= -1001
t_1_7 - t_1_8 - 1000.000000 u_1_7_8 - 0.000000 s_1_8  + 2000.000000 r_1_7_8 > -887.905900
s_2_7 + s_2_8 + 1000 r_2_7_8 >= 2
- s_2_7 - s_2_8 - 1000 r_2_7_8 >= -1001
t_2_7 - t_2_8 - 1000.000000 u_2_7_8 - 0.000000 s_2_8  + 2000.000000 r_2_7_8 > -879.900500
s_1_8 + s_1_1 + 1000 r_1_1_8 >= 2
- s_1_8 - s_1_1 - 1000 r_1_1_8 >= -1001
t_1_8 - t_1_1 + 1000.000000 u_1_1_8 - 3.843766 s_1_1  + 3.843766 s_1_7  + 2000.000000 r_1_1_8 > 27.845478
s_2_8 + s_2_1 + 1000 r_2_1_8 >= 2
- s_2_8 - s_2_1 - 1000 r_2_1_8 >= -1001
t_2_8 - t_2_1 + 1000.000000 u_2_1_8 - 3.622795 s_2_1  + 3.622795 s_2_7  + 2000.000000 r_2_1_8 > 42.750233
s_1_8 + s_1_7 + 1000 r_1_7_8 >= 2
- s_1_8 - s_1_7 - 1000 r_1_7_8 >= -1001
t_1_8 - t_1_7 + 1000.000000 u_1_7_8 - 0.000000 s_1_7  + 2000.000000 r_1_7_8 > 112.012500
s_2_8 + s_2_7 + 1000 r_2_7_8 >= 2
- s_2_8 - s_2_7 - 1000 r_2_7_8 >= -1001
t_2_8 - t_2_7 + 1000.000000 u_2_7_8 - 0.000000 s_2_7  + 2000.000000 r_2_7_8 > 119.997400
Binary
s_1_1
s_2_1
s_1_2
s_2_2
s_1_3
s_2_3
s_1_4
s_2_4
s_1_5
s_2_5
s_1_6
s_2_6
s_1_7
s_2_7
s_1_8
s_2_8
u_1_1_2
r_1_1_2
u_2_1_2
r_2_1_2
u_1_1_3
r_1_1_3
u_2_1_3
r_2_1_3
u_1_1_4
r_1_1_4
u_2_1_4
r_2_1_4
u_1_1_5
r_1_1_5
u_2_1_5
r_2_1_5
u_1_1_8
r_1_1_8
u_2_1_8
r_2_1_8
u_1_2_3
r_1_2_3
u_2_2_3
r_2_2_3
u_1_2_4
r_1_2_4
u_2_2_4
r_2_2_4
u_1_2_5
r_1_2_5
u_2_2_5
r_2_2_5
u_1_2_7
r_1_2_7
u_2_2_7
r_2_2_7
u_1_3_5
r_1_3_5
u_2_3_5
r_2_3_5
u_1_3_7
r_1_3_7
u_2_3_7
r_2_3_7
u_1_4_5
r_1_4_5
u_2_4_5
r_2_4_5
u_1_4_7
r_1_4_7
u_2_4_7
r_2_4_7
u_1_7_8
r_1_7_8
u_2_7_8
r_2_7_8

End
